nK = 883;
nT = 4;
nI = 7;
L = 29;
TT = 186;
np = 1;
nc = 3;
b = [54, 28, 68, 58, 51, 29, 21];
d = [145, 86, 135, 115, 109, 68, 126];
m = [1.8, 1.3, 1.8, 1, 2.2, 1.1, 1.5];
pt = [0.24, 0.2, 0.32, 0.31];
st = [13.44, 9.4, 16.64, 16.43];
arc = {<1, 0, 1, 1, 0, 0, 0, [1, 1, 1, 1]>, <2, 1, 2, 1, 0, 0, 0, [1, 1, 1, 1]>, <3, 2, 3, 1, 0, 0, 0, [1, 1, 1, 1]>, <4, 3, 4, 1, 0, 0, 0, [1, 1, 1, 1]>, <5, 4, 5, 1, 0, 0, 0, [1, 1, 1, 1]>, <6, 5, 6, 1, 0, 0, 0, [1, 1, 1, 1]>, <7, 6, 7, 1, 0, 0, 0, [1, 1, 1, 1]>, <8, 7, 8, 1, 0, 0, 0, [1, 1, 1, 1]>, <9, 8, 9, 1, 0, 0, 0, [1, 1, 1, 1]>, <10, 9, 10, 1, 0, 0, 0, [1, 1, 1, 1]>, <11, 10, 11, 1, 0, 0, 0, [1, 1, 1, 1]>, <12, 11, 12, 1, 0, 0, 0, [1, 1, 1, 1]>, <13, 12, 13, 1, 0, 0, 0, [1, 1, 1, 1]>, <14, 13, 14, 1, 0, 0, 0, [1, 1, 1, 1]>, <15, 14, 15, 1, 0, 0, 0, [1, 1, 1, 1]>, <16, 15, 16, 1, 0, 0, 0, [1, 1, 1, 1]>, <17, 16, 17, 1, 0, 0, 0, [1, 1, 1, 1]>, <18, 17, 18, 1, 0, 0, 0, [1, 1, 1, 1]>, <19, 18, 19, 1, 0, 0, 0, [1, 1, 1, 1]>, <20, 19, 20, 1, 0, 0, 0, [1, 1, 1, 1]>, <21, 20, 21, 1, 0, 0, 0, [1, 1, 1, 1]>, <22, 21, 22, 1, 0, 0, 0, [1, 1, 1, 1]>, <23, 22, 23, 1, 0, 0, 0, [1, 1, 1, 1]>, <24, 23, 24, 1, 0, 0, 0, [1, 1, 1, 1]>, <25, 24, 25, 1, 0, 0, 0, [1, 1, 1, 1]>, <26, 25, 26, 1, 0, 0, 0, [1, 1, 1, 1]>, <27, 26, 27, 1, 0, 0, 0, [1, 1, 1, 1]>, <28, 27, 28, 1, 0, 0, 0, [1, 1, 1, 1]>, <29, 28, 29, 1, 0, 0, 0, [1, 1, 1, 1]>, <30, 0, 14, 14, 1, 0, 1, [1, 0, 0, 1]>, <31, 1, 15, 14, 1, 0, 1, [1, 0, 0, 1]>, <32, 2, 16, 14, 1, 0, 1, [1, 0, 0, 1]>, <33, 3, 17, 14, 1, 0, 1, [1, 0, 0, 1]>, <34, 4, 18, 14, 1, 0, 1, [1, 0, 0, 1]>, <35, 5, 19, 14, 1, 0, 1, [1, 0, 0, 1]>, <36, 6, 20, 14, 1, 0, 1, [1, 0, 0, 1]>, <37, 7, 21, 14, 1, 0, 1, [1, 0, 0, 1]>, <38, 8, 22, 14, 1, 0, 1, [1, 0, 0, 1]>, <39, 9, 23, 14, 1, 0, 1, [1, 0, 0, 1]>, <40, 10, 24, 14, 1, 0, 1, [1, 0, 0, 1]>, <41, 11, 25, 14, 1, 0, 1, [1, 0, 0, 1]>, <42, 12, 26, 14, 1, 0, 1, [1, 0, 0, 1]>, <43, 13, 27, 14, 1, 0, 1, [1, 0, 0, 1]>, <44, 14, 28, 14, 1, 0, 1, [1, 0, 0, 1]>, <45, 15, 29, 14, 1, 0, 1, [1, 0, 0, 1]>, <46, 1, 12, 11, 2, 0, 1, [0, 1, 1, 0]>, <47, 2, 13, 11, 2, 0, 1, [0, 1, 1, 0]>, <48, 3, 14, 11, 2, 0, 1, [0, 1, 1, 0]>, <49, 4, 15, 11, 2, 0, 1, [0, 1, 1, 0]>, <50, 5, 16, 11, 2, 0, 1, [0, 1, 1, 0]>, <51, 9, 20, 11, 2, 0, 1, [0, 1, 1, 0]>, <52, 10, 21, 11, 2, 0, 1, [0, 1, 1, 0]>, <53, 11, 22, 11, 2, 0, 1, [0, 1, 1, 0]>, <54, 12, 23, 11, 2, 0, 1, [0, 1, 1, 0]>, <55, 13, 24, 11, 2, 0, 1, [0, 1, 1, 0]>, <56, 14, 25, 11, 2, 0, 1, [0, 1, 1, 0]>, <57, 15, 26, 11, 2, 0, 1, [0, 1, 1, 0]>, <58, 16, 27, 11, 2, 0, 1, [0, 1, 1, 0]>, <59, 17, 28, 11, 2, 0, 1, [0, 1, 1, 0]>, <60, 18, 29, 11, 2, 0, 1, [0, 1, 1, 0]>, <61, 0, 12, 12, 3, 0, 0, [0, 0, 1, 1]>, <62, 1, 13, 12, 3, 0, 0, [0, 0, 1, 1]>, <63, 2, 14, 12, 3, 0, 0, [0, 0, 1, 1]>, <64, 3, 15, 12, 3, 0, 0, [0, 0, 1, 1]>, <65, 4, 16, 12, 3, 0, 0, [0, 0, 1, 1]>, <66, 5, 17, 12, 3, 0, 0, [0, 0, 1, 1]>, <67, 8, 20, 12, 3, 0, 0, [0, 0, 1, 1]>, <68, 9, 21, 12, 3, 0, 0, [0, 0, 1, 1]>, <69, 10, 22, 12, 3, 0, 0, [0, 0, 1, 1]>, <70, 11, 23, 12, 3, 0, 0, [0, 0, 1, 1]>, <71, 12, 24, 12, 3, 0, 0, [0, 0, 1, 1]>, <72, 13, 25, 12, 3, 0, 0, [0, 0, 1, 1]>, <73, 14, 26, 12, 3, 0, 0, [0, 0, 1, 1]>, <74, 15, 27, 12, 3, 0, 0, [0, 0, 1, 1]>, <75, 16, 28, 12, 3, 0, 0, [0, 0, 1, 1]>, <76, 17, 29, 12, 3, 0, 0, [0, 0, 1, 1]>, <77, 0, 13, 13, 4, 0, 0, [1, 0, 0, 1]>, <78, 1, 14, 13, 4, 0, 0, [1, 0, 0, 1]>, <79, 2, 15, 13, 4, 0, 0, [1, 0, 0, 1]>, <80, 3, 16, 13, 4, 0, 0, [1, 0, 0, 1]>, <81, 4, 17, 13, 4, 0, 0, [1, 0, 0, 1]>, <82, 5, 18, 13, 4, 0, 0, [1, 0, 0, 1]>, <83, 7, 20, 13, 4, 0, 0, [1, 0, 0, 1]>, <84, 8, 21, 13, 4, 0, 0, [1, 0, 0, 1]>, <85, 9, 22, 13, 4, 0, 0, [1, 0, 0, 1]>, <86, 10, 23, 13, 4, 0, 0, [1, 0, 0, 1]>, <87, 11, 24, 13, 4, 0, 0, [1, 0, 0, 1]>, <88, 12, 25, 13, 4, 0, 0, [1, 0, 0, 1]>, <89, 13, 26, 13, 4, 0, 0, [1, 0, 0, 1]>, <90, 14, 27, 13, 4, 0, 0, [1, 0, 0, 1]>, <91, 15, 28, 13, 4, 0, 0, [1, 0, 0, 1]>, <92, 16, 29, 13, 4, 0, 0, [1, 0, 0, 1]>, <93, 0, 12, 12, 5, 0, 0, [1, 1, 0, 0]>, <94, 1, 13, 12, 5, 0, 0, [1, 1, 0, 0]>, <95, 2, 14, 12, 5, 0, 0, [1, 1, 0, 0]>, <96, 3, 15, 12, 5, 0, 0, [1, 1, 0, 0]>, <97, 4, 16, 12, 5, 0, 0, [1, 1, 0, 0]>, <98, 5, 17, 12, 5, 0, 0, [1, 1, 0, 0]>, <99, 8, 20, 12, 5, 0, 0, [1, 1, 0, 0]>, <100, 9, 21, 12, 5, 0, 0, [1, 1, 0, 0]>, <101, 10, 22, 12, 5, 0, 0, [1, 1, 0, 0]>, <102, 11, 23, 12, 5, 0, 0, [1, 1, 0, 0]>, <103, 12, 24, 12, 5, 0, 0, [1, 1, 0, 0]>, <104, 13, 25, 12, 5, 0, 0, [1, 1, 0, 0]>, <105, 14, 26, 12, 5, 0, 0, [1, 1, 0, 0]>, <106, 15, 27, 12, 5, 0, 0, [1, 1, 0, 0]>, <107, 16, 28, 12, 5, 0, 0, [1, 1, 0, 0]>, <108, 17, 29, 12, 5, 0, 0, [1, 1, 0, 0]>, <109, 0, 14, 14, 6, 0, 0, [1, 1, 0, 0]>, <110, 1, 15, 14, 6, 0, 0, [1, 1, 0, 0]>, <111, 2, 16, 14, 6, 0, 0, [1, 1, 0, 0]>, <112, 3, 17, 14, 6, 0, 0, [1, 1, 0, 0]>, <113, 4, 18, 14, 6, 0, 0, [1, 1, 0, 0]>, <114, 5, 19, 14, 6, 0, 0, [1, 1, 0, 0]>, <115, 6, 20, 14, 6, 0, 0, [1, 1, 0, 0]>, <116, 7, 21, 14, 6, 0, 0, [1, 1, 0, 0]>, <117, 8, 22, 14, 6, 0, 0, [1, 1, 0, 0]>, <118, 9, 23, 14, 6, 0, 0, [1, 1, 0, 0]>, <119, 10, 24, 14, 6, 0, 0, [1, 1, 0, 0]>, <120, 11, 25, 14, 6, 0, 0, [1, 1, 0, 0]>, <121, 12, 26, 14, 6, 0, 0, [1, 1, 0, 0]>, <122, 13, 27, 14, 6, 0, 0, [1, 1, 0, 0]>, <123, 14, 28, 14, 6, 0, 0, [1, 1, 0, 0]>, <124, 15, 29, 14, 6, 0, 0, [1, 1, 0, 0]>, <125, 0, 14, 14, 7, 1, 0, [0, 0, 1, 1]>, <126, 1, 15, 14, 7, 1, 0, [0, 0, 1, 1]>, <127, 2, 16, 14, 7, 1, 0, [0, 0, 1, 1]>, <128, 3, 17, 14, 7, 1, 0, [0, 0, 1, 1]>, <129, 4, 18, 14, 7, 1, 0, [0, 0, 1, 1]>, <130, 5, 19, 14, 7, 1, 0, [0, 0, 1, 1]>, <131, 6, 20, 14, 7, 1, 0, [0, 0, 1, 1]>, <132, 7, 21, 14, 7, 1, 0, [0, 0, 1, 1]>, <133, 8, 22, 14, 7, 1, 0, [0, 0, 1, 1]>, <134, 9, 23, 14, 7, 1, 0, [0, 0, 1, 1]>, <135, 10, 24, 14, 7, 1, 0, [0, 0, 1, 1]>, <136, 11, 25, 14, 7, 1, 0, [0, 0, 1, 1]>, <137, 12, 26, 14, 7, 1, 0, [0, 0, 1, 1]>, <138, 13, 27, 14, 7, 1, 0, [0, 0, 1, 1]>, <139, 14, 28, 14, 7, 1, 0, [0, 0, 1, 1]>, <140, 15, 29, 14, 7, 1, 0, [0, 0, 1, 1]>};
